10 0 4 1 7 9 6 3 2 8 5 0 99
999999999 11 16 17 4 13 21 9 12 18
11 999999999 6 8 10 21 15 3 7 7
16 6 999999999 3 17 27 19 10 8 11
17 8 3 999999999 17 27 19 10 10 11
4 10 17 17 999999999 14 23 12 14 16
13 21 27 27 14 999999999 33 22 22 30
21 15 19 19 23 33 999999999 16 21 11
9 3 10 10 12 22 16 999999999 18 6
12 7 8 10 14 22 21 18 999999999 12
18 7 11 11 16 30 11 6 12 999999999
